(set-logic ALL)
(declare-const BAV1 Bool)
(declare-const BAV2 Bool)
(declare-const BAV3 Bool)
(declare-const BAV4 Bool)
(declare-const BAV5 Bool)
(declare-const BAV6 Bool)
(declare-const BAV7 Bool)
(declare-const BAV8 Bool)
(declare-const BAV9 Bool)
(declare-const BAV10 Bool)
(declare-const BAV11 Bool)
(declare-const BAV12 Bool)
(declare-const BAV13 Bool)
(declare-const BAV14 Bool)
(declare-const BAV15 Bool)
(declare-const BAV16 Bool)
(declare-const BAV17 Bool)
(declare-const BAV18 Bool)
(declare-const BAV19 Bool)
(declare-const BAV20 Bool)
(declare-const BAV21 Bool)
(declare-const BAV22 Bool)
(declare-const BAV23 Bool)
(declare-const BAV24 Bool)
(declare-const BAV25 Bool)
(declare-const BAV26 Bool)
(declare-const BAV27 Bool)
(declare-const BAV28 Bool)
(declare-const BAV29 Bool)
(declare-const BAV30 Bool)
(declare-const BAV31 Bool)
(declare-const BAV32 Bool)
(declare-const BAV33 Bool)
(declare-const BAV34 Bool)
(declare-const BAV35 Bool)
(declare-const BAV36 Bool)
(declare-const BAV37 Bool)
(declare-const BAV38 Bool)
(declare-const BAV39 Bool)
(declare-const BAV40 Bool)
(declare-const BAV41 Bool)
(declare-const BAV42 Bool)
(declare-const BAV43 Bool)
(declare-const BAV44 Bool)
(declare-const BAV45 Bool)
(declare-const BAV46 Bool)
(declare-const BAV47 Bool)
(declare-const BAV48 Bool)
(declare-const BAV49 Bool)
(declare-const BAV50 Bool)
(declare-const BAV51 Bool)
(declare-const BAV52 Bool)
(declare-const BAV53 Bool)
(declare-const BAV54 Bool)
(declare-const BAV55 Bool)
(declare-const BAV56 Bool)
(declare-const BAV57 Bool)
(declare-const BAV58 Bool)
(declare-const BAV59 Bool)
(declare-const BAV60 Bool)
(declare-const BAV61 Bool)
(declare-const BAV62 Bool)
(declare-const BAV63 Bool)
(declare-const BAV64 Bool)
(declare-const BAV65 Bool)
(declare-const BAV66 Bool)
(declare-const BAV67 Bool)
(declare-const BAV68 Bool)
(declare-const BAV69 Bool)
(declare-const BAV70 Bool)
(declare-const BAV71 Bool)
(declare-const BAV72 Bool)
(declare-const BAV73 Bool)
(declare-const BAV74 Bool)
(declare-const BAV75 Bool)
(declare-const BAV76 Bool)
(declare-const BAV77 Bool)
(declare-const BAV78 Bool)
(declare-const BAV79 Bool)
(declare-const BAV80 Bool)
(declare-const BAV81 Bool)
(declare-const BAV82 Bool)
(declare-const BAV83 Bool)
(declare-const BAV84 Bool)
(declare-const BAV85 Bool)
(declare-const BAV86 Bool)
(declare-const BAV87 Bool)
(declare-const BAV88 Bool)
(declare-const BAV89 Bool)
(declare-const BAV90 Bool)
(declare-const BAV91 Bool)
(declare-const BAV92 Bool)
(declare-const BAV93 Bool)
(declare-const BAV94 Bool)
(declare-const BAV95 Bool)
(declare-const BAV96 Bool)
(declare-const BAV97 Bool)
(declare-const BAV98 Bool)
(declare-const BAV99 Bool)
(declare-const BAV100 Bool)
(declare-const BAV101 Bool)
(declare-const BAV102 Bool)
(declare-const BAV103 Bool)
(declare-const BAV104 Bool)
(declare-const BAV105 Bool)
(declare-const BAV106 Bool)
(declare-const BAV107 Bool)
(declare-const BAV108 Bool)
(declare-const BAV109 Bool)
(declare-const BAV110 Bool)
(declare-const BAV111 Bool)
(declare-const BAV112 Bool)
(declare-const BAV113 Bool)
(declare-const BAV114 Bool)
(declare-const BAV115 Bool)
(declare-const BAV116 Bool)
(declare-const BAV117 Bool)
(declare-const BAV118 Bool)
(declare-const BAV119 Bool)
(declare-const BAV120 Bool)
(declare-const BAV121 Bool)
(declare-const BAV122 Bool)
(declare-const BAV123 Bool)
(declare-const BAV124 Bool)
(declare-const BAV125 Bool)
(declare-const BAV126 Bool)
(declare-const BAV127 Bool)
(declare-const BAV128 Bool)
(declare-const BAV129 Bool)
(declare-const BAV130 Bool)
(declare-const BAV131 Bool)
(declare-const BAV132 Bool)
(declare-const BAV133 Bool)
(declare-const BAV134 Bool)
(declare-const BAV135 Bool)
(declare-const BAV136 Bool)
(declare-const BAV137 Bool)
(declare-const BAV138 Bool)
(declare-const BAV139 Bool)
(declare-const BAV140 Bool)
(declare-const BAV141 Bool)
(declare-const BAV142 Bool)
(declare-const BAV143 Bool)
(declare-const BAV144 Bool)
(declare-const BAV145 Bool)
(declare-const BAV146 Bool)
(declare-const BAV147 Bool)
(declare-const BAV148 Bool)
(declare-const BAV149 Bool)
(declare-const BAV150 Bool)
(declare-const BAV151 Bool)
(declare-const BAV152 Bool)
(declare-const BAV153 Bool)
(declare-const BAV154 Bool)
(declare-const BAV155 Bool)
(declare-const BAV156 Bool)
(declare-const BAV157 Bool)
(declare-const BAV158 Bool)
(declare-const BAV159 Bool)
(declare-const BAV160 Bool)
(declare-const BAV161 Bool)
(declare-const BAV162 Bool)
(declare-const BAV163 Bool)
(declare-const BAV164 Bool)
(declare-const BAV165 Bool)
(declare-const BAV166 Bool)
(declare-const BAV167 Bool)
(declare-const BAV168 Bool)
(declare-const BAV169 Bool)
(declare-const BAV170 Bool)
(declare-const BAV171 Bool)
(declare-const BAV172 Bool)
(declare-const BAV173 Bool)
(declare-const BAV174 Bool)
(declare-const BAV175 Bool)
(declare-const BAV176 Bool)
(declare-const BAV177 Bool)
(declare-const BAV178 Bool)
(declare-const BAV179 Bool)
(declare-const BAV180 Bool)
(declare-const BAV181 Bool)
(declare-const BAV182 Bool)
(declare-const BAV183 Bool)
(declare-const BAV184 Bool)
(declare-const BAV185 Bool)
(declare-const BAV186 Bool)
(declare-const BAV187 Bool)
(declare-const BAV188 Bool)
(declare-const BAV189 Bool)
(declare-const BAV190 Bool)
(declare-const BAV191 Bool)
(declare-const BAV192 Bool)
(declare-const BAV193 Bool)
(declare-const BAV194 Bool)
(declare-const BAV195 Bool)
(declare-const BAV196 Bool)
(declare-const BAV197 Bool)
(declare-const BAV198 Bool)
(declare-const BAV199 Bool)
(declare-const BAV200 Bool)
(declare-const BAV201 Bool)
(declare-const BAV202 Bool)
(declare-const BAV203 Bool)
(declare-const BAV204 Bool)
(declare-const BAV205 Bool)
(declare-const BAV206 Bool)
(declare-const BAV207 Bool)
(declare-const BAV208 Bool)
(declare-const BAV209 Bool)
(declare-const BAV210 Bool)
(declare-const BAV211 Bool)
(declare-const BAV212 Bool)
(declare-const BAV213 Bool)
(declare-const BAV214 Bool)
(declare-const BAV215 Bool)
(declare-const BAV216 Bool)
(declare-const BAV217 Bool)
(declare-const BAV218 Bool)
(declare-const BAV219 Bool)
(declare-const BAV220 Bool)
(declare-const BAV221 Bool)
(declare-const BAV222 Bool)
(declare-const BAV223 Bool)
(declare-const BAV224 Bool)
(declare-const BAV225 Bool)
(declare-const BAV226 Bool)
(declare-const BAV227 Bool)
(declare-const BAV228 Bool)
(declare-const BAV229 Bool)
(declare-const BAV230 Bool)
(declare-const BAV231 Bool)
(declare-const BAV232 Bool)
(declare-const BAV233 Bool)
(declare-const BAV234 Bool)
(declare-const BAV235 Bool)
(declare-const BAV236 Bool)
(declare-const BAV237 Bool)
(declare-const BAV238 Bool)
(declare-const BAV239 Bool)
(declare-const BAV240 Bool)
(declare-const BAV241 Bool)
(declare-const BAV242 Bool)
(declare-const BAV243 Bool)
(declare-const BAV244 Bool)
(declare-const BAV245 Bool)
(declare-const BAV246 Bool)
(declare-const BAV247 Bool)
(declare-const BAV248 Bool)
(declare-const BAV249 Bool)
(declare-const BAV250 Bool)
(declare-const BAV251 Bool)
(declare-const BAV252 Bool)
(declare-const BAV253 Bool)
(declare-const BAV254 Bool)
(declare-const BAV255 Bool)
(declare-const BAV256 Bool)
(declare-const BAV257 Bool)
(declare-const BAV258 Bool)
(declare-const BAV259 Bool)
(declare-const BAV260 Bool)
(declare-const BAV261 Bool)
(declare-const BAV262 Bool)
(declare-const BAV263 Bool)
(declare-const BAV264 Bool)
(declare-const BAV265 Bool)
(declare-const BAV266 Bool)
(declare-const BAV267 Bool)
(declare-const BAV268 Bool)
(declare-const BAV269 Bool)
(declare-const BAV270 Bool)
(declare-const BAV271 Bool)
(declare-const BAV272 Bool)
(declare-const BAV273 Bool)
(declare-const BAV274 Bool)
(declare-const BAV275 Bool)
(declare-const BAV276 Bool)
(declare-const BAV277 Bool)
(declare-const BAV278 Bool)
(declare-const BAV279 Bool)
(declare-const BAV280 Bool)
(declare-const BAV281 Bool)
(declare-const BAV282 Bool)
(declare-const BAV283 Bool)
(declare-const BAV284 Bool)
(declare-const BAV285 Bool)
(declare-const BAV286 Bool)
(declare-const BAV287 Bool)
(declare-const BAV288 Bool)
(declare-const BAV289 Bool)
(declare-const BAV290 Bool)
(declare-const BAV291 Bool)
(declare-const BAV292 Bool)
(declare-const BAV293 Bool)
(declare-const BAV294 Bool)
(declare-const BAV295 Bool)
(declare-const BAV296 Bool)
(declare-const BAV297 Bool)
(declare-const BAV298 Bool)
(declare-const BAV299 Bool)
(declare-const BAV300 Bool)
(declare-const BAV301 Bool)
(declare-const BAV302 Bool)
(declare-const BAV303 Bool)
(declare-fun x0 () Bool)
(declare-fun x1 () Bool)
(declare-fun x2 () Bool)
(declare-fun x3 () Bool)
(declare-fun x4 () Bool)
(declare-fun x5 () Bool)
(declare-fun x6 () Bool)
(assert (and (or (or (or (not (and (and (or (and x2 x1) (and x0 x4)) (and (and x0 x2) (not x1))) (or (not (not x3)) (not (and x6 x0))))) (and (and (or (or (and x2 x0) (and x0 x0)) (and (and x1 x6) (not x6))) (or (not (and x1 x4)) (or (or x0 x0) (or x3 x0)))) (not (or (or (and x1 x2) (and x1 x4)) (not (and x3 x2)))))) (or (or (and (and (and (or x1 x4) (not x1)) (or (not x1) (and x4 x5))) (and (not (or x3 x2)) (and (not x4) (not x6)))) (or (not (not (not x6))) (not (not (or x0 x2))))) (and (and (or (or (or x6 x3) (or x3 x1)) (not (and x4 x1))) (and (not (or x1 x3)) (or (or x3 x4) (or x4 x1)))) (or (not (or (not x0) (and x4 x5))) (not (not (or x4 x4))))))) (or (not (or (or (and (or (not x1) (and x3 x3)) (not (or x4 x0))) (and (and (not x6) (and x6 x3)) (and (not x1) (not x6)))) (or (or (not (and x5 x0)) (or (not x1) (or x3 x0))) (and (not (and x0 x0)) (and (and x5 x6) (not x2)))))) (and (not (and (not (not (not x0))) (and (or (and x2 x2) (or x1 x4)) (or (and x1 x6) (and x5 x3))))) (and (not (not (not (or x0 x0)))) (or (or (and (or x0 x2) (or x5 x2)) (not (not x2))) (not (or (and x3 x2) (or x5 x3)))))))) (or (and (or (or (not (not (or (not x6) (and x1 x2)))) (not (and (not (and x1 x3)) (and (not x2) (and x1 x4))))) (not (or (and (and (or x1 x2) (or x0 x2)) (and (or x6 x6) (and x4 x0))) (and (and (or x0 x4) (or x6 x0)) (and (and x0 x2) (or x3 x6)))))) (or (and (or (or (and (and x4 x6) (or x2 x6)) (and (not x6) (or x6 x1))) (not (not (not x3)))) (or (and (not (and x5 x2)) (or (or x5 x1) (or x4 x6))) (and (not (or x3 x4)) (or (not x2) (not x2))))) (or (or (not (not (or x1 x1))) (and (not (or x6 x4)) (and (or x6 x1) (not x5)))) (and (and (not (or x0 x0)) (and (or x0 x6) (not x6))) (or (and (not x0) (or x2 x1)) (or (and x6 x3) (not x3))))))) (not (or (not (not (or (or (and x3 x0) (and x3 x5)) (and (or x3 x0) (and x3 x0))))) (not (or (not (or (or x6 x4) (not x5))) (not (or (and x5 x2) (and x4 x4))))))))))
(assert (or x3 x5))
(assert (or (and (not x1) (not x6)) (not (not x6))))
(assert (not (not (and (and (or (or (and (not (or (or x0 x4) (and x4 x1))) (and (and (or x4 x5) (or x3 x1)) (or (not x0) (or x3 x4)))) (or (or (or (or x5 x5) (or x1 x4)) (or (and x5 x6) (not x1))) (or (or (or x2 x0) (or x0 x3)) (and (or x0 x4) (or x5 x6))))) (not (or (not (not (or x0 x2))) (and (and (and x0 x1) (and x0 x5)) (not (and x6 x0)))))) (and (not (or (not (or (or x2 x3) (and x6 x6))) (and (or (not x1) (or x2 x6)) (or (and x6 x4) (and x6 x5))))) (not (not (not (and (not x5) (or x1 x4))))))) (or (not (or (not (not (or (or x4 x0) (and x2 x6)))) (and (and (not (not x0)) (not (not x2))) (not (not (and x5 x6)))))) (or (and (and (and (or (not x4) (not x1)) (and (not x3) (not x1))) (not (and (not x1) (not x0)))) (or (or (or (or x3 x3) (not x3)) (or (not x0) (and x5 x5))) (or (not (and x0 x6)) (and (and x6 x1) (or x0 x3))))) (not (or (or (and (and x1 x5) (and x3 x6)) (and (not x0) (not x4))) (and (and (and x6 x0) (or x4 x0)) (or (and x0 x4) (not x5)))))))))))
(assert (= BAV1 (and (or (or (or (not (and (and (or (and x2 x1) (and x0 x4)) (and (and x0 x2) (not x1))) (or (not (not x3)) (not (and x6 x0))))) (and (and (or (or (and x2 x0) (and x0 x0)) (and (and x1 x6) (not x6))) (or (not (and x1 x4)) (or (or x0 x0) (or x3 x0)))) (not (or (or (and x1 x2) (and x1 x4)) (not (and x3 x2)))))) (or (or (and (and (and (or x1 x4) (not x1)) (or (not x1) (and x4 x5))) (and (not (or x3 x2)) (and (not x4) (not x6)))) (or (not (not (not x6))) (not (not (or x0 x2))))) (and (and (or (or (or x6 x3) (or x3 x1)) (not (and x4 x1))) (and (not (or x1 x3)) (or (or x3 x4) (or x4 x1)))) (or (not (or (not x0) (and x4 x5))) (not (not (or x4 x4))))))) (or (not (or (or (and (or (not x1) (and x3 x3)) (not (or x4 x0))) (and (and (not x6) (and x6 x3)) (and (not x1) (not x6)))) (or (or (not (and x5 x0)) (or (not x1) (or x3 x0))) (and (not (and x0 x0)) (and (and x5 x6) (not x2)))))) (and (not (and (not (not (not x0))) (and (or (and x2 x2) (or x1 x4)) (or (and x1 x6) (and x5 x3))))) (and (not (not (not (or x0 x0)))) (or (or (and (or x0 x2) (or x5 x2)) (not (not x2))) (not (or (and x3 x2) (or x5 x3)))))))) (or (and (or (or (not (not (or (not x6) (and x1 x2)))) (not (and (not (and x1 x3)) (and (not x2) (and x1 x4))))) (not (or (and (and (or x1 x2) (or x0 x2)) (and (or x6 x6) (and x4 x0))) (and (and (or x0 x4) (or x6 x0)) (and (and x0 x2) (or x3 x6)))))) (or (and (or (or (and (and x4 x6) (or x2 x6)) (and (not x6) (or x6 x1))) (not (not (not x3)))) (or (and (not (and x5 x2)) (or (or x5 x1) (or x4 x6))) (and (not (or x3 x4)) (or (not x2) (not x2))))) (or (or (not (not (or x1 x1))) (and (not (or x6 x4)) (and (or x6 x1) (not x5)))) (and (and (not (or x0 x0)) (and (or x0 x6) (not x6))) (or (and (not x0) (or x2 x1)) (or (and x6 x3) (not x3))))))) (not (or (not (not (or (or (and x3 x0) (and x3 x5)) (and (or x3 x0) (and x3 x0))))) (not (or (not (or (or x6 x4) (not x5))) (not (or (and x5 x2) (and x4 x4)))))))))))
(assert (= BAV2 (or (or (or (not (and (and (or (and x2 x1) (and x0 x4)) (and (and x0 x2) (not x1))) (or (not (not x3)) (not (and x6 x0))))) (and (and (or (or (and x2 x0) (and x0 x0)) (and (and x1 x6) (not x6))) (or (not (and x1 x4)) (or (or x0 x0) (or x3 x0)))) (not (or (or (and x1 x2) (and x1 x4)) (not (and x3 x2)))))) (or (or (and (and (and (or x1 x4) (not x1)) (or (not x1) (and x4 x5))) (and (not (or x3 x2)) (and (not x4) (not x6)))) (or (not (not (not x6))) (not (not (or x0 x2))))) (and (and (or (or (or x6 x3) (or x3 x1)) (not (and x4 x1))) (and (not (or x1 x3)) (or (or x3 x4) (or x4 x1)))) (or (not (or (not x0) (and x4 x5))) (not (not (or x4 x4))))))) (or (not (or (or (and (or (not x1) (and x3 x3)) (not (or x4 x0))) (and (and (not x6) (and x6 x3)) (and (not x1) (not x6)))) (or (or (not (and x5 x0)) (or (not x1) (or x3 x0))) (and (not (and x0 x0)) (and (and x5 x6) (not x2)))))) (and (not (and (not (not (not x0))) (and (or (and x2 x2) (or x1 x4)) (or (and x1 x6) (and x5 x3))))) (and (not (not (not (or x0 x0)))) (or (or (and (or x0 x2) (or x5 x2)) (not (not x2))) (not (or (and x3 x2) (or x5 x3))))))))))
(assert (= BAV3 (or (or (not (and (and (or (and x2 x1) (and x0 x4)) (and (and x0 x2) (not x1))) (or (not (not x3)) (not (and x6 x0))))) (and (and (or (or (and x2 x0) (and x0 x0)) (and (and x1 x6) (not x6))) (or (not (and x1 x4)) (or (or x0 x0) (or x3 x0)))) (not (or (or (and x1 x2) (and x1 x4)) (not (and x3 x2)))))) (or (or (and (and (and (or x1 x4) (not x1)) (or (not x1) (and x4 x5))) (and (not (or x3 x2)) (and (not x4) (not x6)))) (or (not (not (not x6))) (not (not (or x0 x2))))) (and (and (or (or (or x6 x3) (or x3 x1)) (not (and x4 x1))) (and (not (or x1 x3)) (or (or x3 x4) (or x4 x1)))) (or (not (or (not x0) (and x4 x5))) (not (not (or x4 x4)))))))))
(assert (= BAV4 (or (not (and (and (or (and x2 x1) (and x0 x4)) (and (and x0 x2) (not x1))) (or (not (not x3)) (not (and x6 x0))))) (and (and (or (or (and x2 x0) (and x0 x0)) (and (and x1 x6) (not x6))) (or (not (and x1 x4)) (or (or x0 x0) (or x3 x0)))) (not (or (or (and x1 x2) (and x1 x4)) (not (and x3 x2))))))))
(assert (= BAV5 (and (and (or (and x2 x1) (and x0 x4)) (and (and x0 x2) (not x1))) (or (not (not x3)) (not (and x6 x0))))))
(assert (= BAV6 (and (or (and x2 x1) (and x0 x4)) (and (and x0 x2) (not x1)))))
(assert (= BAV7 (or (and x2 x1) (and x0 x4))))
(assert (= BAV8 (and x2 x1)))
(assert (= BAV9 (and x0 x4)))
(assert (= BAV10 (and (and x0 x2) (not x1))))
(assert (= BAV11 (and x0 x2)))
(assert (= BAV12 (or (not (not x3)) (not (and x6 x0)))))
(assert (= BAV13 (and x6 x0)))
(assert (= BAV14 (and (and (or (or (and x2 x0) (and x0 x0)) (and (and x1 x6) (not x6))) (or (not (and x1 x4)) (or (or x0 x0) (or x3 x0)))) (not (or (or (and x1 x2) (and x1 x4)) (not (and x3 x2)))))))
(assert (= BAV15 (and (or (or (and x2 x0) (and x0 x0)) (and (and x1 x6) (not x6))) (or (not (and x1 x4)) (or (or x0 x0) (or x3 x0))))))
(assert (= BAV16 (or (or (and x2 x0) (and x0 x0)) (and (and x1 x6) (not x6)))))
(assert (= BAV17 (or (and x2 x0) (and x0 x0))))
(assert (= BAV18 (and x2 x0)))
(assert (= BAV19 (and x0 x0)))
(assert (= BAV20 (and (and x1 x6) (not x6))))
(assert (= BAV21 (and x1 x6)))
(assert (= BAV22 (or (not (and x1 x4)) (or (or x0 x0) (or x3 x0)))))
(assert (= BAV23 (and x1 x4)))
(assert (= BAV24 (or (or x0 x0) (or x3 x0))))
(assert (= BAV25 (or x0 x0)))
(assert (= BAV26 (or x3 x0)))
(assert (= BAV27 (or (or (and x1 x2) (and x1 x4)) (not (and x3 x2)))))
(assert (= BAV28 (or (and x1 x2) (and x1 x4))))
(assert (= BAV29 (and x1 x2)))
(assert (= BAV30 (and x1 x4)))
(assert (= BAV31 (and x3 x2)))
(assert (= BAV32 (or (or (and (and (and (or x1 x4) (not x1)) (or (not x1) (and x4 x5))) (and (not (or x3 x2)) (and (not x4) (not x6)))) (or (not (not (not x6))) (not (not (or x0 x2))))) (and (and (or (or (or x6 x3) (or x3 x1)) (not (and x4 x1))) (and (not (or x1 x3)) (or (or x3 x4) (or x4 x1)))) (or (not (or (not x0) (and x4 x5))) (not (not (or x4 x4))))))))
(assert (= BAV33 (or (and (and (and (or x1 x4) (not x1)) (or (not x1) (and x4 x5))) (and (not (or x3 x2)) (and (not x4) (not x6)))) (or (not (not (not x6))) (not (not (or x0 x2)))))))
(assert (= BAV34 (and (and (and (or x1 x4) (not x1)) (or (not x1) (and x4 x5))) (and (not (or x3 x2)) (and (not x4) (not x6))))))
(assert (= BAV35 (and (and (or x1 x4) (not x1)) (or (not x1) (and x4 x5)))))
(assert (= BAV36 (and (or x1 x4) (not x1))))
(assert (= BAV37 (or x1 x4)))
(assert (= BAV38 (or (not x1) (and x4 x5))))
(assert (= BAV39 (and x4 x5)))
(assert (= BAV40 (and (not (or x3 x2)) (and (not x4) (not x6)))))
(assert (= BAV41 (or x3 x2)))
(assert (= BAV42 (and (not x4) (not x6))))
(assert (= BAV43 (or (not (not (not x6))) (not (not (or x0 x2))))))
(assert (= BAV44 (or x0 x2)))
(assert (= BAV45 (and (and (or (or (or x6 x3) (or x3 x1)) (not (and x4 x1))) (and (not (or x1 x3)) (or (or x3 x4) (or x4 x1)))) (or (not (or (not x0) (and x4 x5))) (not (not (or x4 x4)))))))
(assert (= BAV46 (and (or (or (or x6 x3) (or x3 x1)) (not (and x4 x1))) (and (not (or x1 x3)) (or (or x3 x4) (or x4 x1))))))
(assert (= BAV47 (or (or (or x6 x3) (or x3 x1)) (not (and x4 x1)))))
(assert (= BAV48 (or (or x6 x3) (or x3 x1))))
(assert (= BAV49 (or x6 x3)))
(assert (= BAV50 (or x3 x1)))
(assert (= BAV51 (and x4 x1)))
(assert (= BAV52 (and (not (or x1 x3)) (or (or x3 x4) (or x4 x1)))))
(assert (= BAV53 (or x1 x3)))
(assert (= BAV54 (or (or x3 x4) (or x4 x1))))
(assert (= BAV55 (or x3 x4)))
(assert (= BAV56 (or x4 x1)))
(assert (= BAV57 (or (not (or (not x0) (and x4 x5))) (not (not (or x4 x4))))))
(assert (= BAV58 (or (not x0) (and x4 x5))))
(assert (= BAV59 (and x4 x5)))
(assert (= BAV60 (or x4 x4)))
(assert (= BAV61 (or (not (or (or (and (or (not x1) (and x3 x3)) (not (or x4 x0))) (and (and (not x6) (and x6 x3)) (and (not x1) (not x6)))) (or (or (not (and x5 x0)) (or (not x1) (or x3 x0))) (and (not (and x0 x0)) (and (and x5 x6) (not x2)))))) (and (not (and (not (not (not x0))) (and (or (and x2 x2) (or x1 x4)) (or (and x1 x6) (and x5 x3))))) (and (not (not (not (or x0 x0)))) (or (or (and (or x0 x2) (or x5 x2)) (not (not x2))) (not (or (and x3 x2) (or x5 x3)))))))))
(assert (= BAV62 (or (or (and (or (not x1) (and x3 x3)) (not (or x4 x0))) (and (and (not x6) (and x6 x3)) (and (not x1) (not x6)))) (or (or (not (and x5 x0)) (or (not x1) (or x3 x0))) (and (not (and x0 x0)) (and (and x5 x6) (not x2)))))))
(assert (= BAV63 (or (and (or (not x1) (and x3 x3)) (not (or x4 x0))) (and (and (not x6) (and x6 x3)) (and (not x1) (not x6))))))
(assert (= BAV64 (and (or (not x1) (and x3 x3)) (not (or x4 x0)))))
(assert (= BAV65 (or (not x1) (and x3 x3))))
(assert (= BAV66 (and x3 x3)))
(assert (= BAV67 (or x4 x0)))
(assert (= BAV68 (and (and (not x6) (and x6 x3)) (and (not x1) (not x6)))))
(assert (= BAV69 (and (not x6) (and x6 x3))))
(assert (= BAV70 (and x6 x3)))
(assert (= BAV71 (and (not x1) (not x6))))
(assert (= BAV72 (or (or (not (and x5 x0)) (or (not x1) (or x3 x0))) (and (not (and x0 x0)) (and (and x5 x6) (not x2))))))
(assert (= BAV73 (or (not (and x5 x0)) (or (not x1) (or x3 x0)))))
(assert (= BAV74 (and x5 x0)))
(assert (= BAV75 (or (not x1) (or x3 x0))))
(assert (= BAV76 (or x3 x0)))
(assert (= BAV77 (and (not (and x0 x0)) (and (and x5 x6) (not x2)))))
(assert (= BAV78 (and x0 x0)))
(assert (= BAV79 (and (and x5 x6) (not x2))))
(assert (= BAV80 (and x5 x6)))
(assert (= BAV81 (and (not (and (not (not (not x0))) (and (or (and x2 x2) (or x1 x4)) (or (and x1 x6) (and x5 x3))))) (and (not (not (not (or x0 x0)))) (or (or (and (or x0 x2) (or x5 x2)) (not (not x2))) (not (or (and x3 x2) (or x5 x3))))))))
(assert (= BAV82 (and (not (not (not x0))) (and (or (and x2 x2) (or x1 x4)) (or (and x1 x6) (and x5 x3))))))
(assert (= BAV83 (and (or (and x2 x2) (or x1 x4)) (or (and x1 x6) (and x5 x3)))))
(assert (= BAV84 (or (and x2 x2) (or x1 x4))))
(assert (= BAV85 (and x2 x2)))
(assert (= BAV86 (or x1 x4)))
(assert (= BAV87 (or (and x1 x6) (and x5 x3))))
(assert (= BAV88 (and x1 x6)))
(assert (= BAV89 (and x5 x3)))
(assert (= BAV90 (and (not (not (not (or x0 x0)))) (or (or (and (or x0 x2) (or x5 x2)) (not (not x2))) (not (or (and x3 x2) (or x5 x3)))))))
(assert (= BAV91 (or x0 x0)))
(assert (= BAV92 (or (or (and (or x0 x2) (or x5 x2)) (not (not x2))) (not (or (and x3 x2) (or x5 x3))))))
(assert (= BAV93 (or (and (or x0 x2) (or x5 x2)) (not (not x2)))))
(assert (= BAV94 (and (or x0 x2) (or x5 x2))))
(assert (= BAV95 (or x0 x2)))
(assert (= BAV96 (or x5 x2)))
(assert (= BAV97 (or (and x3 x2) (or x5 x3))))
(assert (= BAV98 (and x3 x2)))
(assert (= BAV99 (or x5 x3)))
(assert (= BAV100 (or (and (or (or (not (not (or (not x6) (and x1 x2)))) (not (and (not (and x1 x3)) (and (not x2) (and x1 x4))))) (not (or (and (and (or x1 x2) (or x0 x2)) (and (or x6 x6) (and x4 x0))) (and (and (or x0 x4) (or x6 x0)) (and (and x0 x2) (or x3 x6)))))) (or (and (or (or (and (and x4 x6) (or x2 x6)) (and (not x6) (or x6 x1))) (not (not (not x3)))) (or (and (not (and x5 x2)) (or (or x5 x1) (or x4 x6))) (and (not (or x3 x4)) (or (not x2) (not x2))))) (or (or (not (not (or x1 x1))) (and (not (or x6 x4)) (and (or x6 x1) (not x5)))) (and (and (not (or x0 x0)) (and (or x0 x6) (not x6))) (or (and (not x0) (or x2 x1)) (or (and x6 x3) (not x3))))))) (not (or (not (not (or (or (and x3 x0) (and x3 x5)) (and (or x3 x0) (and x3 x0))))) (not (or (not (or (or x6 x4) (not x5))) (not (or (and x5 x2) (and x4 x4))))))))))
(assert (= BAV101 (and (or (or (not (not (or (not x6) (and x1 x2)))) (not (and (not (and x1 x3)) (and (not x2) (and x1 x4))))) (not (or (and (and (or x1 x2) (or x0 x2)) (and (or x6 x6) (and x4 x0))) (and (and (or x0 x4) (or x6 x0)) (and (and x0 x2) (or x3 x6)))))) (or (and (or (or (and (and x4 x6) (or x2 x6)) (and (not x6) (or x6 x1))) (not (not (not x3)))) (or (and (not (and x5 x2)) (or (or x5 x1) (or x4 x6))) (and (not (or x3 x4)) (or (not x2) (not x2))))) (or (or (not (not (or x1 x1))) (and (not (or x6 x4)) (and (or x6 x1) (not x5)))) (and (and (not (or x0 x0)) (and (or x0 x6) (not x6))) (or (and (not x0) (or x2 x1)) (or (and x6 x3) (not x3)))))))))
(assert (= BAV102 (or (or (not (not (or (not x6) (and x1 x2)))) (not (and (not (and x1 x3)) (and (not x2) (and x1 x4))))) (not (or (and (and (or x1 x2) (or x0 x2)) (and (or x6 x6) (and x4 x0))) (and (and (or x0 x4) (or x6 x0)) (and (and x0 x2) (or x3 x6))))))))
(assert (= BAV103 (or (not (not (or (not x6) (and x1 x2)))) (not (and (not (and x1 x3)) (and (not x2) (and x1 x4)))))))
(assert (= BAV104 (or (not x6) (and x1 x2))))
(assert (= BAV105 (and x1 x2)))
(assert (= BAV106 (and (not (and x1 x3)) (and (not x2) (and x1 x4)))))
(assert (= BAV107 (and x1 x3)))
(assert (= BAV108 (and (not x2) (and x1 x4))))
(assert (= BAV109 (and x1 x4)))
(assert (= BAV110 (or (and (and (or x1 x2) (or x0 x2)) (and (or x6 x6) (and x4 x0))) (and (and (or x0 x4) (or x6 x0)) (and (and x0 x2) (or x3 x6))))))
(assert (= BAV111 (and (and (or x1 x2) (or x0 x2)) (and (or x6 x6) (and x4 x0)))))
(assert (= BAV112 (and (or x1 x2) (or x0 x2))))
(assert (= BAV113 (or x1 x2)))
(assert (= BAV114 (or x0 x2)))
(assert (= BAV115 (and (or x6 x6) (and x4 x0))))
(assert (= BAV116 (or x6 x6)))
(assert (= BAV117 (and x4 x0)))
(assert (= BAV118 (and (and (or x0 x4) (or x6 x0)) (and (and x0 x2) (or x3 x6)))))
(assert (= BAV119 (and (or x0 x4) (or x6 x0))))
(assert (= BAV120 (or x0 x4)))
(assert (= BAV121 (or x6 x0)))
(assert (= BAV122 (and (and x0 x2) (or x3 x6))))
(assert (= BAV123 (and x0 x2)))
(assert (= BAV124 (or x3 x6)))
(assert (= BAV125 (or (and (or (or (and (and x4 x6) (or x2 x6)) (and (not x6) (or x6 x1))) (not (not (not x3)))) (or (and (not (and x5 x2)) (or (or x5 x1) (or x4 x6))) (and (not (or x3 x4)) (or (not x2) (not x2))))) (or (or (not (not (or x1 x1))) (and (not (or x6 x4)) (and (or x6 x1) (not x5)))) (and (and (not (or x0 x0)) (and (or x0 x6) (not x6))) (or (and (not x0) (or x2 x1)) (or (and x6 x3) (not x3))))))))
(assert (= BAV126 (and (or (or (and (and x4 x6) (or x2 x6)) (and (not x6) (or x6 x1))) (not (not (not x3)))) (or (and (not (and x5 x2)) (or (or x5 x1) (or x4 x6))) (and (not (or x3 x4)) (or (not x2) (not x2)))))))
(assert (= BAV127 (or (or (and (and x4 x6) (or x2 x6)) (and (not x6) (or x6 x1))) (not (not (not x3))))))
(assert (= BAV128 (or (and (and x4 x6) (or x2 x6)) (and (not x6) (or x6 x1)))))
(assert (= BAV129 (and (and x4 x6) (or x2 x6))))
(assert (= BAV130 (and x4 x6)))
(assert (= BAV131 (or x2 x6)))
(assert (= BAV132 (and (not x6) (or x6 x1))))
(assert (= BAV133 (or x6 x1)))
(assert (= BAV134 (or (and (not (and x5 x2)) (or (or x5 x1) (or x4 x6))) (and (not (or x3 x4)) (or (not x2) (not x2))))))
(assert (= BAV135 (and (not (and x5 x2)) (or (or x5 x1) (or x4 x6)))))
(assert (= BAV136 (and x5 x2)))
(assert (= BAV137 (or (or x5 x1) (or x4 x6))))
(assert (= BAV138 (or x5 x1)))
(assert (= BAV139 (or x4 x6)))
(assert (= BAV140 (and (not (or x3 x4)) (or (not x2) (not x2)))))
(assert (= BAV141 (or x3 x4)))
(assert (= BAV142 (or (not x2) (not x2))))
(assert (= BAV143 (or (or (not (not (or x1 x1))) (and (not (or x6 x4)) (and (or x6 x1) (not x5)))) (and (and (not (or x0 x0)) (and (or x0 x6) (not x6))) (or (and (not x0) (or x2 x1)) (or (and x6 x3) (not x3)))))))
(assert (= BAV144 (or (not (not (or x1 x1))) (and (not (or x6 x4)) (and (or x6 x1) (not x5))))))
(assert (= BAV145 (or x1 x1)))
(assert (= BAV146 (and (not (or x6 x4)) (and (or x6 x1) (not x5)))))
(assert (= BAV147 (or x6 x4)))
(assert (= BAV148 (and (or x6 x1) (not x5))))
(assert (= BAV149 (or x6 x1)))
(assert (= BAV150 (and (and (not (or x0 x0)) (and (or x0 x6) (not x6))) (or (and (not x0) (or x2 x1)) (or (and x6 x3) (not x3))))))
(assert (= BAV151 (and (not (or x0 x0)) (and (or x0 x6) (not x6)))))
(assert (= BAV152 (or x0 x0)))
(assert (= BAV153 (and (or x0 x6) (not x6))))
(assert (= BAV154 (or x0 x6)))
(assert (= BAV155 (or (and (not x0) (or x2 x1)) (or (and x6 x3) (not x3)))))
(assert (= BAV156 (and (not x0) (or x2 x1))))
(assert (= BAV157 (or x2 x1)))
(assert (= BAV158 (or (and x6 x3) (not x3))))
(assert (= BAV159 (and x6 x3)))
(assert (= BAV160 (or (not (not (or (or (and x3 x0) (and x3 x5)) (and (or x3 x0) (and x3 x0))))) (not (or (not (or (or x6 x4) (not x5))) (not (or (and x5 x2) (and x4 x4))))))))
(assert (= BAV161 (or (or (and x3 x0) (and x3 x5)) (and (or x3 x0) (and x3 x0)))))
(assert (= BAV162 (or (and x3 x0) (and x3 x5))))
(assert (= BAV163 (and x3 x0)))
(assert (= BAV164 (and x3 x5)))
(assert (= BAV165 (and (or x3 x0) (and x3 x0))))
(assert (= BAV166 (or x3 x0)))
(assert (= BAV167 (and x3 x0)))
(assert (= BAV168 (or (not (or (or x6 x4) (not x5))) (not (or (and x5 x2) (and x4 x4))))))
(assert (= BAV169 (or (or x6 x4) (not x5))))
(assert (= BAV170 (or x6 x4)))
(assert (= BAV171 (or (and x5 x2) (and x4 x4))))
(assert (= BAV172 (and x5 x2)))
(assert (= BAV173 (and x4 x4)))
(assert (= BAV174 (or x3 x5)))
(assert (= BAV175 (or (and (not x1) (not x6)) (not (not x6)))))
(assert (= BAV176 (and (not x1) (not x6))))
(assert (= BAV177 (and (and (or (or (and (not (or (or x0 x4) (and x4 x1))) (and (and (or x4 x5) (or x3 x1)) (or (not x0) (or x3 x4)))) (or (or (or (or x5 x5) (or x1 x4)) (or (and x5 x6) (not x1))) (or (or (or x2 x0) (or x0 x3)) (and (or x0 x4) (or x5 x6))))) (not (or (not (not (or x0 x2))) (and (and (and x0 x1) (and x0 x5)) (not (and x6 x0)))))) (and (not (or (not (or (or x2 x3) (and x6 x6))) (and (or (not x1) (or x2 x6)) (or (and x6 x4) (and x6 x5))))) (not (not (not (and (not x5) (or x1 x4))))))) (or (not (or (not (not (or (or x4 x0) (and x2 x6)))) (and (and (not (not x0)) (not (not x2))) (not (not (and x5 x6)))))) (or (and (and (and (or (not x4) (not x1)) (and (not x3) (not x1))) (not (and (not x1) (not x0)))) (or (or (or (or x3 x3) (not x3)) (or (not x0) (and x5 x5))) (or (not (and x0 x6)) (and (and x6 x1) (or x0 x3))))) (not (or (or (and (and x1 x5) (and x3 x6)) (and (not x0) (not x4))) (and (and (and x6 x0) (or x4 x0)) (or (and x0 x4) (not x5))))))))))
(assert (= BAV178 (and (or (or (and (not (or (or x0 x4) (and x4 x1))) (and (and (or x4 x5) (or x3 x1)) (or (not x0) (or x3 x4)))) (or (or (or (or x5 x5) (or x1 x4)) (or (and x5 x6) (not x1))) (or (or (or x2 x0) (or x0 x3)) (and (or x0 x4) (or x5 x6))))) (not (or (not (not (or x0 x2))) (and (and (and x0 x1) (and x0 x5)) (not (and x6 x0)))))) (and (not (or (not (or (or x2 x3) (and x6 x6))) (and (or (not x1) (or x2 x6)) (or (and x6 x4) (and x6 x5))))) (not (not (not (and (not x5) (or x1 x4)))))))))
(assert (= BAV179 (or (or (and (not (or (or x0 x4) (and x4 x1))) (and (and (or x4 x5) (or x3 x1)) (or (not x0) (or x3 x4)))) (or (or (or (or x5 x5) (or x1 x4)) (or (and x5 x6) (not x1))) (or (or (or x2 x0) (or x0 x3)) (and (or x0 x4) (or x5 x6))))) (not (or (not (not (or x0 x2))) (and (and (and x0 x1) (and x0 x5)) (not (and x6 x0))))))))
(assert (= BAV180 (or (and (not (or (or x0 x4) (and x4 x1))) (and (and (or x4 x5) (or x3 x1)) (or (not x0) (or x3 x4)))) (or (or (or (or x5 x5) (or x1 x4)) (or (and x5 x6) (not x1))) (or (or (or x2 x0) (or x0 x3)) (and (or x0 x4) (or x5 x6)))))))
(assert (= BAV181 (and (not (or (or x0 x4) (and x4 x1))) (and (and (or x4 x5) (or x3 x1)) (or (not x0) (or x3 x4))))))
(assert (= BAV182 (or (or x0 x4) (and x4 x1))))
(assert (= BAV183 (or x0 x4)))
(assert (= BAV184 (and x4 x1)))
(assert (= BAV185 (and (and (or x4 x5) (or x3 x1)) (or (not x0) (or x3 x4)))))
(assert (= BAV186 (and (or x4 x5) (or x3 x1))))
(assert (= BAV187 (or x4 x5)))
(assert (= BAV188 (or x3 x1)))
(assert (= BAV189 (or (not x0) (or x3 x4))))
(assert (= BAV190 (or x3 x4)))
(assert (= BAV191 (or (or (or (or x5 x5) (or x1 x4)) (or (and x5 x6) (not x1))) (or (or (or x2 x0) (or x0 x3)) (and (or x0 x4) (or x5 x6))))))
(assert (= BAV192 (or (or (or x5 x5) (or x1 x4)) (or (and x5 x6) (not x1)))))
(assert (= BAV193 (or (or x5 x5) (or x1 x4))))
(assert (= BAV194 (or x5 x5)))
(assert (= BAV195 (or x1 x4)))
(assert (= BAV196 (or (and x5 x6) (not x1))))
(assert (= BAV197 (and x5 x6)))
(assert (= BAV198 (or (or (or x2 x0) (or x0 x3)) (and (or x0 x4) (or x5 x6)))))
(assert (= BAV199 (or (or x2 x0) (or x0 x3))))
(assert (= BAV200 (or x2 x0)))
(assert (= BAV201 (or x0 x3)))
(assert (= BAV202 (and (or x0 x4) (or x5 x6))))
(assert (= BAV203 (or x0 x4)))
(assert (= BAV204 (or x5 x6)))
(assert (= BAV205 (or (not (not (or x0 x2))) (and (and (and x0 x1) (and x0 x5)) (not (and x6 x0))))))
(assert (= BAV206 (or x0 x2)))
(assert (= BAV207 (and (and (and x0 x1) (and x0 x5)) (not (and x6 x0)))))
(assert (= BAV208 (and (and x0 x1) (and x0 x5))))
(assert (= BAV209 (and x0 x1)))
(assert (= BAV210 (and x0 x5)))
(assert (= BAV211 (and x6 x0)))
(assert (= BAV212 (and (not (or (not (or (or x2 x3) (and x6 x6))) (and (or (not x1) (or x2 x6)) (or (and x6 x4) (and x6 x5))))) (not (not (not (and (not x5) (or x1 x4))))))))
(assert (= BAV213 (or (not (or (or x2 x3) (and x6 x6))) (and (or (not x1) (or x2 x6)) (or (and x6 x4) (and x6 x5))))))
(assert (= BAV214 (or (or x2 x3) (and x6 x6))))
(assert (= BAV215 (or x2 x3)))
(assert (= BAV216 (and x6 x6)))
(assert (= BAV217 (and (or (not x1) (or x2 x6)) (or (and x6 x4) (and x6 x5)))))
(assert (= BAV218 (or (not x1) (or x2 x6))))
(assert (= BAV219 (or x2 x6)))
(assert (= BAV220 (or (and x6 x4) (and x6 x5))))
(assert (= BAV221 (and x6 x4)))
(assert (= BAV222 (and x6 x5)))
(assert (= BAV223 (and (not x5) (or x1 x4))))
(assert (= BAV224 (or x1 x4)))
(assert (= BAV225 (or (not (or (not (not (or (or x4 x0) (and x2 x6)))) (and (and (not (not x0)) (not (not x2))) (not (not (and x5 x6)))))) (or (and (and (and (or (not x4) (not x1)) (and (not x3) (not x1))) (not (and (not x1) (not x0)))) (or (or (or (or x3 x3) (not x3)) (or (not x0) (and x5 x5))) (or (not (and x0 x6)) (and (and x6 x1) (or x0 x3))))) (not (or (or (and (and x1 x5) (and x3 x6)) (and (not x0) (not x4))) (and (and (and x6 x0) (or x4 x0)) (or (and x0 x4) (not x5)))))))))
(assert (= BAV226 (or (not (not (or (or x4 x0) (and x2 x6)))) (and (and (not (not x0)) (not (not x2))) (not (not (and x5 x6)))))))
(assert (= BAV227 (or (or x4 x0) (and x2 x6))))
(assert (= BAV228 (or x4 x0)))
(assert (= BAV229 (and x2 x6)))
(assert (= BAV230 (and (and (not (not x0)) (not (not x2))) (not (not (and x5 x6))))))
(assert (= BAV231 (and (not (not x0)) (not (not x2)))))
(assert (= BAV232 (and x5 x6)))
(assert (= BAV233 (or (and (and (and (or (not x4) (not x1)) (and (not x3) (not x1))) (not (and (not x1) (not x0)))) (or (or (or (or x3 x3) (not x3)) (or (not x0) (and x5 x5))) (or (not (and x0 x6)) (and (and x6 x1) (or x0 x3))))) (not (or (or (and (and x1 x5) (and x3 x6)) (and (not x0) (not x4))) (and (and (and x6 x0) (or x4 x0)) (or (and x0 x4) (not x5))))))))
(assert (= BAV234 (and (and (and (or (not x4) (not x1)) (and (not x3) (not x1))) (not (and (not x1) (not x0)))) (or (or (or (or x3 x3) (not x3)) (or (not x0) (and x5 x5))) (or (not (and x0 x6)) (and (and x6 x1) (or x0 x3)))))))
(assert (= BAV235 (and (and (or (not x4) (not x1)) (and (not x3) (not x1))) (not (and (not x1) (not x0))))))
(assert (= BAV236 (and (or (not x4) (not x1)) (and (not x3) (not x1)))))
(assert (= BAV237 (or (not x4) (not x1))))
(assert (= BAV238 (and (not x3) (not x1))))
(assert (= BAV239 (and (not x1) (not x0))))
(assert (= BAV240 (or (or (or (or x3 x3) (not x3)) (or (not x0) (and x5 x5))) (or (not (and x0 x6)) (and (and x6 x1) (or x0 x3))))))
(assert (= BAV241 (or (or (or x3 x3) (not x3)) (or (not x0) (and x5 x5)))))
(assert (= BAV242 (or (or x3 x3) (not x3))))
(assert (= BAV243 (or x3 x3)))
(assert (= BAV244 (or (not x0) (and x5 x5))))
(assert (= BAV245 (and x5 x5)))
(assert (= BAV246 (or (not (and x0 x6)) (and (and x6 x1) (or x0 x3)))))
(assert (= BAV247 (and x0 x6)))
(assert (= BAV248 (and (and x6 x1) (or x0 x3))))
(assert (= BAV249 (and x6 x1)))
(assert (= BAV250 (or x0 x3)))
(assert (= BAV251 (or (or (and (and x1 x5) (and x3 x6)) (and (not x0) (not x4))) (and (and (and x6 x0) (or x4 x0)) (or (and x0 x4) (not x5))))))
(assert (= BAV252 (or (and (and x1 x5) (and x3 x6)) (and (not x0) (not x4)))))
(assert (= BAV253 (and (and x1 x5) (and x3 x6))))
(assert (= BAV254 (and x1 x5)))
(assert (= BAV255 (and x3 x6)))
(assert (= BAV256 (and (not x0) (not x4))))
(assert (= BAV257 (and (and (and x6 x0) (or x4 x0)) (or (and x0 x4) (not x5)))))
(assert (= BAV258 (and (and x6 x0) (or x4 x0))))
(assert (= BAV259 (and x6 x0)))
(assert (= BAV260 (or x4 x0)))
(assert (= BAV261 (or (and x0 x4) (not x5))))
(assert (= BAV262 (and x0 x4)))
(assert (= BAV263 (and x2 x0)))
(assert (= BAV264 (and (not (and (or x3 x3) (and x6 x0))) (or (not (or x6 x4)) (or (or x1 x2) (and x4 x6))))))
(assert (= BAV265 (and (or x3 x3) (and x6 x0))))
(assert (= BAV266 (or x3 x3)))
(assert (= BAV267 (and x6 x0)))
(assert (= BAV268 (or (not (or x6 x4)) (or (or x1 x2) (and x4 x6)))))
(assert (= BAV269 (or x6 x4)))
(assert (= BAV270 (or (or x1 x2) (and x4 x6))))
(assert (= BAV271 (or x1 x2)))
(assert (= BAV272 (and x4 x6)))
(assert (= BAV273 (and (not (or (and (and (and x4 x2) (not x3)) (or (or x5 x6) (not x2))) (not (or (not x0) (not x4))))) (or (or (not (or (not x0) (or x2 x2))) (and (and (not x5) (not x1)) (or (not x6) (not x5)))) (and (and (not (and x2 x1)) (not (or x6 x0))) (or (not (or x0 x2)) (not (and x1 x2))))))))
(assert (= BAV274 (or (and (and (and x4 x2) (not x3)) (or (or x5 x6) (not x2))) (not (or (not x0) (not x4))))))
(assert (= BAV275 (and (and (and x4 x2) (not x3)) (or (or x5 x6) (not x2)))))
(assert (= BAV276 (and (and x4 x2) (not x3))))
(assert (= BAV277 (and x4 x2)))
(assert (= BAV278 (or (or x5 x6) (not x2))))
(assert (= BAV279 (or x5 x6)))
(assert (= BAV280 (or (not x0) (not x4))))
(assert (= BAV281 (or (or (not (or (not x0) (or x2 x2))) (and (and (not x5) (not x1)) (or (not x6) (not x5)))) (and (and (not (and x2 x1)) (not (or x6 x0))) (or (not (or x0 x2)) (not (and x1 x2)))))))
(assert (= BAV282 (or (not (or (not x0) (or x2 x2))) (and (and (not x5) (not x1)) (or (not x6) (not x5))))))
(assert (= BAV283 (or (not x0) (or x2 x2))))
(assert (= BAV284 (or x2 x2)))
(assert (= BAV285 (and (and (not x5) (not x1)) (or (not x6) (not x5)))))
(assert (= BAV286 (and (not x5) (not x1))))
(assert (= BAV287 (or (not x6) (not x5))))
(assert (= BAV288 (and (and (not (and x2 x1)) (not (or x6 x0))) (or (not (or x0 x2)) (not (and x1 x2))))))
(assert (= BAV289 (and (not (and x2 x1)) (not (or x6 x0)))))
(assert (= BAV290 (and x2 x1)))
(assert (= BAV291 (or x6 x0)))
(assert (= BAV292 (or (not (or x0 x2)) (not (and x1 x2)))))
(assert (= BAV293 (or x0 x2)))
(assert (= BAV294 (and x1 x2)))
(assert (= BAV295 (and (not (or (not (not x4)) (or (or x1 x6) (and x2 x4)))) (not (and (and (or x1 x1) (and x1 x6)) (not (not x2)))))))
(assert (= BAV296 (or (not (not x4)) (or (or x1 x6) (and x2 x4)))))
(assert (= BAV297 (or (or x1 x6) (and x2 x4))))
(assert (= BAV298 (or x1 x6)))
(assert (= BAV299 (and x2 x4)))
(assert (= BAV300 (and (and (or x1 x1) (and x1 x6)) (not (not x2)))))
(assert (= BAV301 (and (or x1 x1) (and x1 x6))))
(assert (= BAV302 (or x1 x1)))
(assert (= BAV303 (and x1 x6)))
(check-sat)
(push 1)
(check-sat)
(push 1)
(assert (and x2 x0))
(check-sat)
(push 1)
(assert (and (not (and (or x3 x3) (and x6 x0))) (or (not (or x6 x4)) (or (or x1 x2) (and x4 x6)))))
(assert (and (not (or (and (and (and x4 x2) (not x3)) (or (or x5 x6) (not x2))) (not (or (not x0) (not x4))))) (or (or (not (or (not x0) (or x2 x2))) (and (and (not x5) (not x1)) (or (not x6) (not x5)))) (and (and (not (and x2 x1)) (not (or x6 x0))) (or (not (or x0 x2)) (not (and x1 x2)))))))
(check-sat)
(pop 1)
(check-sat)
(pop 1)
(assert (and (not (or (not (not x4)) (or (or x1 x6) (and x2 x4)))) (not (and (and (or x1 x1) (and x1 x6)) (not (not x2))))))
(assert (not (not x3)))
(check-sat)